c 3 2 U
p cnf 4 9
-2 3 0
-1 4 0
-2 4 0
-4 -2 0
-4 -1 0
1 1 0
4 4 0
-4 -3 0
-1 -4 0
c 4 2 S
p cnf 4 9
2 1 0
-4 -1 0
1 -3 0
2 -3 0
1 -2 0
3 -2 0
3 -3 0
3 -2 0
2 -3 0
c 5 2 S
p cnf 4 9
3 1 0
-2 -2 0
3 2 0
-1 -1 0
4 2 0
-2 2 0
-2 -1 0
-2 -2 0
3 -2 0
c 6 2 S
p cnf 4 9
1 -3 0
-1 4 0
-3 3 0
2 -1 0
-3 4 0
1 4 0
-4 2 0
-1 2 0
-4 1 0
c 7 2 S
p cnf 4 9
-3 -4 0
-1 -3 0
-2 1 0
-4 -2 0
-4 -1 0
1 -1 0
-1 3 0
-2 -3 0
-1 -3 0
c 8 2 U
p cnf 4 9
2 -4 0
-2 -1 0
-2 -4 0
4 4 0
-4 -4 0
-4 1 0
4 -4 0
-3 1 0
-4 1 0
c 9 2 U
p cnf 4 9
4 -3 0
-2 3 0
1 1 0
2 -4 0
-2 -1 0
-2 -4 0
-3 2 0
1 2 0
3 -1 0
c 10 2 U
p cnf 4 9
1 -4 0
2 4 0
-2 4 0
-1 -3 0
-4 3 0
4 3 0
2 -3 0
-4 4 0
-1 -2 0
c 11 2 S
p cnf 4 9
4 -4 0
2 -2 0
4 -2 0
1 -4 0
-1 -1 0
-2 1 0
3 -2 0
3 -1 0
4 -4 0
c 12 2 S
p cnf 4 9
4 -3 0
-4 3 0
3 -2 0
2 -3 0
-3 -1 0
1 -4 0
-1 -2 0
4 1 0
2 -2 0
c 13 2 S
p cnf 6 12
3 -6 0
-6 -6 0
-2 -2 0
-5 6 0
1 -2 0
-3 1 0
4 2 0
-3 4 0
6 4 0
-6 3 0
6 -5 0
4 -5 0
c 14 2 U
p cnf 6 12
-1 3 0
-3 6 0
3 6 0
-4 -3 0
3 3 0
-6 2 0
-2 -6 0
1 -1 0
-3 4 0
5 -5 0
-6 5 0
-2 6 0
c 15 2 S
p cnf 6 12
-2 -5 0
-2 -1 0
-6 6 0
-2 3 0
6 3 0
3 -2 0
3 2 0
6 2 0
4 1 0
5 4 0
6 -4 0
-4 -2 0
c 16 2 U
p cnf 6 12
3 4 0
-4 -4 0
4 -2 0
1 3 0
-6 6 0
-1 5 0
-1 -5 0
4 5 0
2 3 0
-4 3 0
-4 5 0
-5 -3 0
c 17 2 U
p cnf 6 12
5 3 0
-3 6 0
-1 2 0
6 3 0
6 -2 0
-2 -2 0
-3 -6 0
3 1 0
-6 6 0
5 1 0
-3 6 0
1 -3 0
c 18 2 U
p cnf 6 12
-2 6 0
-3 2 0
6 2 0
3 -3 0
-3 -3 0
-2 -2 0
6 -5 0
6 2 0
-3 3 0
2 5 0
5 3 0
-5 3 0
c 19 2 U
p cnf 6 12
-6 -5 0
-5 4 0
5 -5 0
5 1 0
4 -3 0
3 -1 0
-1 1 0
-4 1 0
-1 5 0
4 6 0
-5 6 0
-2 2 0
c 20 2 S
p cnf 6 12
-6 -3 0
-3 1 0
-4 -1 0
3 5 0
-4 2 0
6 3 0
1 -4 0
-2 -1 0
-1 2 0
6 3 0
-2 1 0
-6 -2 0
c 21 2 U
p cnf 6 12
2 6 0
6 -4 0
-4 -5 0
-1 3 0
-1 -2 0
-6 4 0
5 1 0
5 -6 0
6 -1 0
-6 -1 0
-4 5 0
4 -2 0
c 22 2 S
p cnf 6 12
-2 1 0
-2 6 0
-1 -3 0
-3 5 0
-6 -5 0
5 3 0
-2 -1 0
6 5 0
-3 4 0
-6 3 0
-6 -4 0
-3 4 0
c 23 2 S
p cnf 8 14
-5 1 0
7 -6 0
4 -8 0
4 -1 0
2 -7 0
7 -1 0
1 -3 0
6 5 0
2 3 0
-8 -3 0
-6 -2 0
2 1 0
5 2 0
5 -8 0
c 24 2 S
p cnf 8 14
-7 -4 0
-4 -2 0
-5 8 0
-2 3 0
8 -8 0
-5 6 0
2 -1 0
6 2 0
-2 3 0
5 -5 0
2 -3 0
6 -4 0
8 -4 0
-2 5 0
c 25 2 S
p cnf 8 14
-7 4 0
-8 -5 0
5 -2 0
4 3 0
-8 2 0
7 -4 0
-8 2 0
-2 -1 0
-2 7 0
7 8 0
1 -5 0
1 7 0
1 4 0
-6 -3 0
c 26 2 U
p cnf 8 14
-4 -7 0
3 -1 0
-7 -7 0
-1 -3 0
4 7 0
-4 1 0
-2 1 0
6 7 0
-4 -5 0
7 -3 0
-2 -3 0
1 4 0
2 2 0
1 -8 0
c 27 2 S
p cnf 8 14
8 -5 0
-2 5 0
5 -7 0
-4 -8 0
2 -7 0
8 1 0
-5 -6 0
-3 7 0
-1 3 0
3 -1 0
1 3 0
-7 5 0
8 1 0
3 3 0
c 28 2 S
p cnf 8 14
-2 -3 0
3 -7 0
-4 -7 0
-3 -4 0
-7 -2 0
7 -3 0
-5 -8 0
-4 5 0
2 2 0
-3 -6 0
1 8 0
3 5 0
-3 3 0
4 -1 0
c 29 2 S
p cnf 8 14
2 -5 0
6 -7 0
-1 -8 0
-6 8 0
-7 -8 0
4 -7 0
7 -5 0
7 3 0
5 -7 0
-6 -5 0
-6 -7 0
7 8 0
3 4 0
-1 7 0
c 30 2 S
p cnf 8 14
-5 4 0
1 -7 0
2 -1 0
-1 3 0
-6 -7 0
4 -7 0
-5 8 0
3 5 0
-2 4 0
-2 7 0
-3 8 0
8 -6 0
-1 8 0
5 5 0
c 31 2 S
p cnf 8 14
1 2 0
-3 -3 0
-4 -3 0
-1 4 0
-7 -2 0
1 -6 0
4 7 0
-4 4 0
-1 3 0
-3 3 0
-1 -8 0
4 -6 0
-6 -8 0
5 5 0
c 32 2 U
p cnf 8 14
-2 3 0
4 -1 0
2 -6 0
8 -1 0
1 4 0
4 2 0
-2 -2 0
-8 -7 0
1 -4 0
8 -8 0
-5 1 0
4 -6 0
4 5 0
2 -1 0
c 33 2 S
p cnf 10 16
-10 4 0
-8 10 0
9 8 0
2 7 0
9 1 0
5 -9 0
-2 6 0
-4 -6 0
-6 9 0
-6 6 0
9 -7 0
-2 -6 0
-2 -2 0
-6 1 0
5 -4 0
7 10 0
c 34 2 S
p cnf 10 16
9 -10 0
-4 7 0
2 5 0
-2 2 0
-6 -3 0
1 -5 0
-7 10 0
5 -6 0
4 -9 0
-10 10 0
9 -4 0
-2 8 0
-7 10 0
-4 7 0
-8 9 0
7 -6 0
c 35 2 S
p cnf 10 16
9 3 0
3 7 0
-10 9 0
-6 -6 0
-9 2 0
-6 6 0
-1 4 0
-2 -6 0
-10 8 0
2 -3 0
3 8 0
7 1 0
10 -9 0
2 9 0
-2 7 0
4 -7 0
c 36 2 S
p cnf 10 16
-6 1 0
-2 -9 0
4 7 0
9 -9 0
10 8 0
6 4 0
-3 9 0
4 3 0
10 -9 0
1 -8 0
4 -6 0
8 -10 0
4 9 0
-8 4 0
-4 -3 0
4 -7 0
c 37 2 S
p cnf 10 16
-10 -10 0
6 -9 0
8 7 0
-8 -1 0
-7 9 0
6 10 0
-10 -9 0
9 -2 0
1 -2 0
1 -6 0
-1 4 0
4 -10 0
5 4 0
-3 -5 0
8 -2 0
-5 2 0
c 38 2 S
p cnf 10 16
7 -2 0
6 -6 0
-10 10 0
6 6 0
8 -4 0
9 3 0
-9 1 0
-6 3 0
2 -2 0
-8 2 0
-5 6 0
7 5 0
3 -5 0
-6 -4 0
-5 3 0
4 -2 0
c 39 2 U
p cnf 10 16
4 -7 0
-4 -7 0
5 -3 0
-5 -6 0
2 6 0
2 9 0
-5 8 0
5 -10 0
-1 10 0
10 6 0
7 -8 0
9 -2 0
5 -4 0
7 -9 0
-7 1 0
1 -3 0
c 40 2 S
p cnf 10 16
-8 4 0
-4 6 0
-8 -9 0
-1 10 0
-1 10 0
2 -6 0
-9 -7 0
6 -4 0
-5 9 0
5 -3 0
8 -9 0
-3 -10 0
2 10 0
-2 4 0
-8 8 0
10 -5 0
c 41 2 S
p cnf 10 16
7 -4 0
7 9 0
-7 -4 0
-8 3 0
3 -10 0
-2 7 0
-4 6 0
-3 -2 0
-3 1 0
-6 -10 0
-10 -7 0
5 -3 0
2 1 0
-7 -1 0
-3 8 0
7 -9 0
c 42 2 S
p cnf 10 16
-2 -5 0
-4 -2 0
10 -1 0
-2 -4 0
-9 9 0
4 10 0
-1 7 0
-5 4 0
-2 -7 0
6 10 0
1 -9 0
-7 9 0
10 -10 0
-2 4 0
-2 2 0
5 -6 0
c 43 2 S
p cnf 12 18
1 -12 0
8 -11 0
8 -10 0
9 10 0
10 -7 0
-1 2 0
-3 3 0
3 10 0
-10 -7 0
-1 -3 0
3 -5 0
-9 -10 0
2 11 0
6 -3 0
2 1 0
-6 -11 0
-9 5 0
12 12 0
c 44 2 U
p cnf 12 18
-7 3 0
4 -1 0
-2 -2 0
9 12 0
10 12 0
-6 6 0
-10 -2 0
-10 5 0
2 1 0
-7 8 0
-4 3 0
-12 -1 0
11 -12 0
12 6 0
11 -10 0
4 8 0
-10 -5 0
-1 1 0
c 45 2 S
p cnf 12 18
5 8 0
2 -6 0
2 -1 0
-5 -5 0
-10 3 0
-12 4 0
2 -3 0
-1 6 0
6 2 0
-2 6 0
7 -10 0
8 4 0
-3 4 0
12 -5 0
7 -7 0
10 -9 0
9 -1 0
10 6 0
c 46 2 S
p cnf 12 18
2 -1 0
-11 -10 0
-1 -6 0
-1 9 0
9 -12 0
7 -6 0
8 2 0
-12 -7 0
6 12 0
-3 10 0
2 8 0
3 5 0
-4 -10 0
10 2 0
2 -9 0
-6 -12 0
2 2 0
-3 -11 0
c 47 2 U
p cnf 12 18
-6 7 0
10 5 0
-7 -7 0
-2 5 0
-12 6 0
-4 9 0
-8 1 0
12 10 0
-9 -4 0
3 2 0
10 9 0
-2 12 0
4 -12 0
7 11 0
4 -6 0
8 10 0
-5 -10 0
-11 7 0
c 48 2 S
p cnf 12 18
9 3 0
-9 12 0
-3 -11 0
-8 -4 0
-8 -1 0
-7 3 0
-11 -3 0
12 6 0
-2 5 0
-11 10 0
-11 6 0
-3 7 0
1 2 0
10 10 0
-12 -2 0
3 8 0
-7 1 0
7 -6 0
c 49 2 U
p cnf 12 18
2 -7 0
-6 -11 0
12 3 0
-12 -11 0
10 10 0
-7 -4 0
2 12 0
6 5 0
-10 11 0
-12 -11 0
10 9 0
3 4 0
5 10 0
12 7 0
-12 -9 0
-1 2 0
-2 12 0
-12 7 0
c 50 2 S
p cnf 12 18
8 -6 0
12 -6 0
9 -4 0
3 2 0
-6 -4 0
6 -11 0
2 12 0
-1 6 0
-7 4 0
5 3 0
-10 -9 0
-7 11 0
-7 8 0
2 -9 0
1 1 0
-8 -3 0
3 -7 0
-6 -11 0
c 51 2 S
p cnf 12 18
-4 -4 0
9 7 0
12 10 0
7 -7 0
-2 9 0
1 -11 0
6 6 0
-11 1 0
3 -1 0
-2 3 0
1 -7 0
-6 -8 0
10 8 0
2 -11 0
-7 -8 0
9 9 0
-11 6 0
-9 10 0
c 52 2 U
p cnf 12 18
-5 12 0
6 -1 0
3 3 0
-8 1 0
-8 -4 0
-3 -8 0
11 8 0
-7 1 0
2 11 0
-9 3 0
-9 -5 0
-6 12 0
10 -10 0
-4 4 0
-8 -3 0
-3 -3 0
-5 9 0
-2 -12 0
c 53 2 S
p cnf 14 20
-10 8 0
12 12 0
-12 -14 0
3 -12 0
-5 -3 0
-6 -8 0
-4 3 0
9 9 0
1 -5 0
2 7 0
-4 -13 0
8 4 0
-10 -3 0
-1 -14 0
13 7 0
-5 1 0
-7 -14 0
4 11 0
-11 -8 0
9 -6 0
c 54 2 S
p cnf 14 20
3 9 0
8 -7 0
8 10 0
-4 1 0
13 -10 0
9 9 0
7 -9 0
2 5 0
-10 -7 0
6 -1 0
-12 -3 0
-7 -1 0
8 -10 0
-8 -4 0
11 -9 0
14 7 0
7 -6 0
14 14 0
-5 6 0
13 -2 0
c 55 2 S
p cnf 14 20
-2 3 0
-14 -12 0
-5 6 0
9 7 0
6 -9 0
11 -1 0
-9 10 0
-14 1 0
-4 9 0
-4 -13 0
-7 5 0
-14 2 0
5 -6 0
4 -3 0
4 -9 0
-8 -5 0
14 14 0
-10 -7 0
-5 14 0
5 -5 0
c 56 2 S
p cnf 14 20
-14 8 0
13 -12 0
2 -10 0
6 -10 0
-1 -1 0
-7 3 0
-4 -2 0
-9 -8 0
12 -3 0
-13 -9 0
-4 3 0
12 -1 0
10 -1 0
-9 10 0
7 8 0
4 9 0
-11 -11 0
3 13 0
-3 4 0
3 -8 0
c 57 2 S
p cnf 14 20
1 -10 0
4 8 0
7 -1 0
9 7 0
2 9 0
-14 -10 0
3 -9 0
14 -9 0
10 -6 0
4 -7 0
7 1 0
-8 -7 0
10 -8 0
12 -9 0
-5 5 0
6 11 0
1 -11 0
-3 11 0
-5 1 0
12 -4 0
c 58 2 U
p cnf 14 20
-10 -4 0
-1 8 0
6 13 0
8 -5 0
1 4 0
-13 8 0
11 -1 0
-13 -5 0
3 -5 0
-10 -13 0
-3 -8 0
-3 -12 0
1 14 0
-11 8 0
10 10 0
3 -5 0
-8 -10 0
-8 -3 0
8 6 0
8 12 0
c 59 2 U
p cnf 14 20
-4 11 0
-1 14 0
-12 -11 0
14 7 0
13 -13 0
12 -11 0
-9 2 0
-11 14 0
-5 -1 0
-12 -10 0
5 -2 0
14 -10 0
11 -1 0
8 -9 0
6 12 0
-10 -13 0
11 10 0
9 11 0
-6 -9 0
-8 4 0
c 60 2 S
p cnf 14 20
5 -10 0
-5 13 0
8 -1 0
-11 3 0
-1 -11 0
-7 3 0
-10 -9 0
-10 -5 0
-1 -5 0
9 -2 0
3 -14 0
-12 -10 0
9 13 0
6 -2 0
-1 -9 0
-2 14 0
12 9 0
12 -9 0
6 -8 0
9 1 0
c 61 2 U
p cnf 14 20
-8 -9 0
13 5 0
-13 8 0
-6 7 0
-6 -6 0
-9 -11 0
-6 -7 0
3 5 0
12 8 0
10 -13 0
13 7 0
-4 -3 0
9 -8 0
9 2 0
1 -3 0
8 -12 0
-7 2 0
10 1 0
5 -7 0
-3 7 0
c 62 2 U
p cnf 14 20
-10 -2 0
8 11 0
-3 -3 0
-5 -14 0
1 -8 0
13 -10 0
-12 -12 0
6 -10 0
10 5 0
6 1 0
14 10 0
4 -4 0
-10 -10 0
-1 -4 0
2 8 0
-5 -6 0
-6 7 0
6 -8 0
-6 -2 0
12 -2 0
c 63 2 U
p cnf 16 26
15 10 0
-16 -13 0
-3 -10 0
-10 -8 0
-11 -9 0
-2 8 0
14 -16 0
-4 2 0
-11 -1 0
1 -15 0
-12 -12 0
12 3 0
-3 8 0
-15 2 0
7 -11 0
10 4 0
5 -5 0
-10 -16 0
-2 -14 0
13 -9 0
-16 8 0
1 -16 0
3 12 0
-6 16 0
6 -12 0
14 6 0
c 64 2 S
p cnf 16 26
-16 -13 0
7 -7 0
3 -15 0
-1 -13 0
-3 -4 0
-9 -7 0
1 -13 0
-10 14 0
10 -16 0
-2 8 0
-6 -8 0
-9 -8 0
-10 6 0
-8 -8 0
9 15 0
-12 -9 0
6 -2 0
-2 -4 0
6 9 0
-16 16 0
-2 -11 0
4 -10 0
13 -12 0
11 -1 0
-10 -13 0
8 9 0
c 65 2 U
